/*********************************************
 * OPL 12.6.0.0 Data
 * Author: Adrian Rodriguez Bazaga, Pau Rodriguez Esmerats
 * Creation Date: 06/12/2017 at 23:04:59
 *********************************************/

nNurses=270;
maxConsec=2;
maxPresence=7;
maxHours=5;
minHours=1;
hours=24;
demand= [47 50 76 78 50 76 78 51 58 33 6 5 9 6 11 5 8 4 5 1 27 51 26 46  ];
